import psi4
import numpy as np

basis {
assign s_orb
[ s_orb ]
cartesian
****
H     0
S   1   1.00
      0.50000000000      1.0000000000
S   1   1.00
      0.40000000000      1.0000000000
****
}

molecule h2o {
symmetry c1
units bohr
0 1
H 0.000000000000 0.000000000000 -0.849220457955
H 0.000000000000 0.000000000000  0.849220457955
}

set scf_type pk
set mp2_type conv
set puream false
set e_convergence 9
set d_convergence 9
set points 5
e, wfn = gradient('hf', return_wfn=True, dertype='gradient')

print(np.asarray(e))

mol = wfn.molecule()
bs = wfn.basisset()
basis = psi4.core.BasisSet.build(mol)
mints = psi4.core.MintsHelper(basis)

print(np.asarray(mints.ao_overlap()))
print(np.asarray(mints.ao_kinetic()))
print(np.asarray(mints.ao_eri()))
#F = np.asarray(wfn.Fa())
#np.save('F1', F)


